NAME : ry48p.tour
COMMENT : Optimum tour for ry48p.tsp (Length 14422)
TYPE : TOUR
DIMENSION : 48
TOUR_SECTION  
45
35
4
26
42
2
29
5
48
39
21
47
20
33
46
36
7
18
28
30
37
43
17
27
19
6
44
31
38
8
1
9
40
15
12
11
23
3
22
16
41
34
14
25
13
32
24
10
-1
EOF
